benchmarks_CP/INST_36x36/35/inst36x36_35_77.dzn
S=6;
start=[|
-1,	-1,	17,	-1,	3,	-1,	-1,	-1,	31,	-1,	9,	12,	-1,	18,	-1,	-1,	-1,	19,	-1,	6,	28,	25,	23,	-1,	-1,	-1,	-1,	36,	-1,	-1,	-1,	10,	-1,	-1,	-1,	8|
9,	-1,	-1,	-1,	-1,	-1,	-1,	-1,	-1,	-1,	-1,	-1,	24,	30,	22,	31,	-1,	-1,	-1,	36,	-1,	5,	7,	-1,	-1,	-1,	-1,	-1,	28,	13,	-1,	16,	-1,	-1,	-1,	2|
-1,	2,	6,	10,	-1,	-1,	32,	16,	-1,	-1,	-1,	4,	35,	-1,	-1,	7,	12,	25,	27,	-1,	-1,	34,	-1,	-1,	-1,	1,	-1,	-1,	-1,	-1,	24,	-1,	-1,	-1,	-1,	28|
-1,	-1,	-1,	-1,	23,	-1,	2,	-1,	6,	26,	-1,	-1,	-1,	3,	-1,	1,	14,	-1,	-1,	-1,	-1,	-1,	-1,	10,	-1,	-1,	22,	-1,	-1,	16,	32,	18,	-1,	-1,	19,	-1|
26,	-1,	-1,	-1,	-1,	-1,	-1,	-1,	23,	-1,	24,	-1,	36,	-1,	16,	-1,	-1,	-1,	12,	-1,	-1,	-1,	-1,	-1,	-1,	2,	-1,	-1,	4,	35,	-1,	11,	-1,	-1,	1,	-1|
-1,	-1,	11,	27,	-1,	29,	-1,	-1,	-1,	-1,	-1,	-1,	28,	-1,	26,	-1,	-1,	-1,	-1,	2,	-1,	-1,	-1,	-1,	-1,	-1,	-1,	-1,	-1,	31,	-1,	-1,	-1,	-1,	-1,	-1|
-1,	-1,	-1,	2,	-1,	3,	-1,	-1,	34,	4,	-1,	-1,	-1,	9,	19,	35,	32,	31,	23,	-1,	-1,	-1,	6,	-1,	-1,	33,	13,	-1,	-1,	8,	28,	-1,	-1,	-1,	-1,	14|
-1,	5,	23,	-1,	-1,	-1,	15,	-1,	-1,	3,	12,	-1,	20,	7,	-1,	24,	-1,	-1,	-1,	-1,	-1,	-1,	-1,	-1,	14,	-1,	34,	-1,	27,	-1,	-1,	-1,	-1,	32,	17,	-1|
31,	9,	-1,	16,	-1,	-1,	-1,	-1,	25,	-1,	-1,	-1,	34,	-1,	36,	-1,	-1,	-1,	-1,	28,	-1,	-1,	-1,	5,	-1,	-1,	-1,	32,	17,	-1,	-1,	-1,	19,	15,	8,	13|
-1,	-1,	-1,	-1,	13,	-1,	-1,	19,	18,	-1,	36,	-1,	-1,	-1,	6,	-1,	17,	5,	34,	-1,	4,	-1,	-1,	30,	-1,	-1,	35,	16,	-1,	10,	-1,	2,	1,	-1,	-1,	27|
-1,	20,	-1,	15,	-1,	-1,	9,	-1,	-1,	-1,	-1,	-1,	1,	-1,	-1,	18,	-1,	8,	24,	-1,	-1,	-1,	-1,	31,	-1,	-1,	7,	-1,	-1,	-1,	-1,	-1,	-1,	-1,	-1,	12|
-1,	27,	-1,	11,	12,	17,	31,	21,	-1,	8,	-1,	-1,	14,	-1,	23,	16,	15,	-1,	-1,	-1,	-1,	-1,	-1,	-1,	-1,	-1,	-1,	-1,	-1,	5,	3,	25,	-1,	-1,	-1,	34|
-1,	-1,	-1,	-1,	31,	26,	8,	-1,	4,	13,	-1,	-1,	-1,	29,	-1,	27,	-1,	-1,	28,	32,	-1,	7,	12,	-1,	-1,	-1,	-1,	-1,	-1,	9,	34,	-1,	5,	-1,	10,	-1|
-1,	11,	24,	23,	19,	-1,	-1,	29,	-1,	27,	-1,	36,	-1,	-1,	-1,	14,	-1,	-1,	-1,	-1,	26,	-1,	-1,	-1,	-1,	-1,	-1,	17,	30,	-1,	-1,	12,	25,	21,	-1,	-1|
-1,	-1,	-1,	-1,	-1,	30,	23,	10,	32,	2,	-1,	-1,	-1,	25,	21,	-1,	22,	18,	-1,	-1,	9,	-1,	-1,	3,	15,	5,	29,	19,	-1,	-1,	27,	-1,	26,	-1,	-1,	-1|
28,	-1,	-1,	-1,	-1,	-1,	-1,	-1,	-1,	-1,	-1,	19,	-1,	-1,	-1,	-1,	-1,	10,	16,	-1,	18,	-1,	-1,	-1,	-1,	-1,	-1,	-1,	-1,	-1,	-1,	17,	2,	-1,	-1,	3|
-1,	-1,	36,	-1,	2,	-1,	-1,	-1,	-1,	-1,	-1,	-1,	-1,	19,	-1,	23,	35,	-1,	-1,	-1,	-1,	1,	27,	-1,	16,	-1,	26,	-1,	18,	6,	-1,	24,	-1,	9,	-1,	-1|
-1,	-1,	-1,	-1,	9,	-1,	24,	-1,	-1,	-1,	26,	30,	-1,	-1,	-1,	-1,	-1,	-1,	25,	34,	-1,	-1,	-1,	-1,	-1,	-1,	-1,	1,	-1,	-1,	-1,	-1,	23,	6,	18,	16|
-1,	23,	31,	25,	10,	20,	1,	4,	-1,	24,	-1,	9,	-1,	33,	18,	-1,	-1,	-1,	-1,	12,	-1,	-1,	-1,	-1,	27,	-1,	-1,	30,	-1,	-1,	7,	-1,	-1,	-1,	-1,	-1|
11,	1,	-1,	24,	-1,	2,	-1,	-1,	-1,	-1,	3,	-1,	26,	-1,	-1,	9,	7,	-1,	32,	-1,	25,	30,	-1,	-1,	5,	6,	4,	-1,	-1,	-1,	-1,	29,	18,	-1,	-1,	-1|
-1,	7,	9,	-1,	-1,	-1,	-1,	35,	11,	10,	27,	18,	2,	1,	13,	-1,	25,	-1,	36,	4,	23,	16,	8,	-1,	-1,	-1,	-1,	24,	33,	29,	-1,	3,	-1,	-1,	30,	-1|
-1,	-1,	35,	4,	36,	18,	-1,	13,	-1,	7,	-1,	28,	-1,	-1,	-1,	32,	-1,	-1,	-1,	19,	-1,	-1,	-1,	-1,	-1,	26,	-1,	25,	-1,	-1,	1,	-1,	-1,	-1,	-1,	-1|
-1,	8,	-1,	-1,	-1,	-1,	-1,	-1,	-1,	-1,	-1,	-1,	-1,	14,	-1,	22,	19,	-1,	-1,	10,	-1,	6,	-1,	27,	7,	31,	-1,	-1,	-1,	1,	-1,	9,	-1,	-1,	-1,	-1|
-1,	21,	-1,	-1,	-1,	-1,	-1,	12,	-1,	-1,	-1,	-1,	-1,	-1,	-1,	-1,	-1,	35,	-1,	-1,	-1,	15,	3,	-1,	-1,	-1,	-1,	-1,	9,	20,	23,	19,	10,	-1,	-1,	-1|
-1,	-1,	4,	-1,	-1,	31,	-1,	-1,	-1,	-1,	-1,	-1,	-1,	-1,	-1,	-1,	-1,	-1,	1,	-1,	-1,	3,	-1,	7,	13,	-1,	15,	-1,	-1,	-1,	-1,	-1,	17,	-1,	11,	19|
-1,	-1,	-1,	-1,	-1,	34,	-1,	15,	-1,	-1,	-1,	-1,	23,	-1,	-1,	2,	-1,	-1,	-1,	-1,	12,	4,	-1,	-1,	10,	8,	-1,	33,	11,	-1,	-1,	-1,	9,	-1,	28,	29|
-1,	-1,	25,	-1,	-1,	-1,	-1,	6,	-1,	-1,	-1,	5,	-1,	-1,	27,	-1,	-1,	-1,	2,	11,	29,	-1,	-1,	36,	-1,	-1,	-1,	-1,	1,	14,	26,	-1,	30,	-1,	-1,	-1|
23,	24,	2,	-1,	29,	5,	-1,	-1,	-1,	-1,	11,	-1,	-1,	-1,	-1,	-1,	-1,	17,	-1,	-1,	22,	9,	28,	-1,	-1,	12,	-1,	-1,	-1,	-1,	18,	15,	-1,	-1,	-1,	-1|
-1,	-1,	14,	-1,	11,	-1,	27,	-1,	-1,	-1,	-1,	-1,	10,	-1,	-1,	-1,	-1,	-1,	-1,	-1,	-1,	-1,	-1,	-1,	35,	17,	-1,	-1,	29,	-1,	13,	4,	-1,	-1,	-1,	-1|
-1,	28,	-1,	-1,	-1,	13,	-1,	-1,	-1,	18,	-1,	-1,	15,	-1,	-1,	-1,	-1,	-1,	31,	17,	-1,	-1,	10,	-1,	-1,	16,	-1,	-1,	-1,	19,	-1,	-1,	-1,	-1,	-1,	-1|
-1,	3,	-1,	-1,	17,	-1,	-1,	-1,	-1,	9,	-1,	-1,	-1,	-1,	8,	10,	5,	-1,	-1,	-1,	1,	-1,	-1,	25,	19,	-1,	20,	-1,	22,	-1,	-1,	27,	11,	-1,	-1,	-1|
-1,	-1,	-1,	33,	20,	27,	-1,	-1,	19,	-1,	23,	-1,	18,	2,	-1,	-1,	-1,	-1,	-1,	15,	-1,	-1,	9,	12,	-1,	4,	-1,	-1,	-1,	-1,	-1,	-1,	13,	1,	-1,	-1|
29,	-1,	-1,	-1,	21,	-1,	-1,	-1,	-1,	-1,	20,	-1,	30,	-1,	-1,	15,	3,	12,	-1,	-1,	24,	-1,	2,	-1,	31,	-1,	18,	-1,	-1,	-1,	9,	14,	4,	-1,	-1,	-1|
-1,	-1,	-1,	-1,	15,	-1,	-1,	-1,	24,	-1,	-1,	-1,	-1,	-1,	-1,	-1,	1,	-1,	33,	-1,	-1,	17,	-1,	-1,	-1,	28,	21,	-1,	-1,	-1,	-1,	-1,	-1,	18,	-1,	26|
-1,	-1,	-1,	9,	-1,	-1,	17,	-1,	-1,	-1,	-1,	32,	-1,	-1,	-1,	19,	28,	-1,	-1,	-1,	-1,	20,	-1,	-1,	-1,	-1,	-1,	-1,	34,	-1,	25,	-1,	31,	-1,	-1,	-1|
-1,	26,	-1,	-1,	16,	-1,	-1,	-1,	-1,	-1,	-1,	-1,	9,	-1,	-1,	33,	13,	-1,	-1,	-1,	-1,	-1,	-1,	34,	-1,	-1,	-1,	-1,	5,	3,	19,	-1,	-1,	-1,	-1,	20|];
